n = 32;
lu = [|-485, 349
      |-394, 370
      |147, 744
      |-771, 8
      |98, 477
      |-628, 468
      |-989, -978
      |-629, 1004
      |-921, 510
      |372, 1008
      |-929, -813
      |-63, 307
      |-702, -381
      |-352, 371
      |-723, 935
      |-684, 455
      |-366, 180
      |-709, -492
      |780, 1004
      |298, 593
      |-879, 569
      |59, 844
      |-840, -555
      |355, 918
      |-724, -624
      |521, 639
      |-214, 787
      |-993, 561
      |-127, 39
      |-316, -15
      |-951, -699
      |-637, -548|];
